
  22    4
  10   10   10   10

   0   0   0   0   0   8 2 3 4 5 6 7 8 9 
   7  10  10  10  10   3 12 11 10 
  10  10  10  10  10   4 21 19 12 10 
   3  10  10  10  10   4 21 19 12 10 
   7  10  10  10  10   5 20 17 16 13 11 
   8  10  10  10  10   3 19 12 10 
   1  10  10  10  10   2 12 10 
   2  10  10  10  10   5 20 19 17 13 12 
   1  10  10  10  10   5 19 18 17 13 12 
   8  10  10  10  10   6 20 18 17 16 15 13 
   1  10  10  10  10   5 21 19 18 15 14 
   3  10  10  10  10   3 16 15 14 
   1  10  10  10  10   1 14 
   3  10  10  10  10   1 22
   3  10  10  10  10   1 22
   7  10  10  10  10   1 22
   6  10  10  10  10   1 22
   5  10  10  10  10   1 22
   6  10  10  10  10   1 22
   5  10  10  10  10   1 22
   8  10  10  10  10   1 22
   0   0   0   0   0   0 
